20
70.0
0 19 5.67 3.6
1 18 5.17 3.16
2 17 6.65 3.07
3 16 5.74 3.63
4 15 5.81 3.39
5 14 5.17 3.6
6 13 4.73 3.33
7 12 6.66 3.66
8 11 5.95 3.59
9 10 4.33 3.12
10 9 5.38 2.95
11 8 5.56 3.33
12 7 6.56 3.31
13 6 6.63 2.96
14 5 5.16 3.58
15 4 5.48 3.31
16 3 5.47 4.43
17 2 3.35 4.06
18 1 9.84 3.36
